/*********************************************
    * Lab01 - FCD_FCR
    * Author: Coso
    * Creation Date: Mar, 2019
    *********************************************/
instance_name = "small_instance_11_FCD_FCR";

d = 2;
r = 3;

SCj = [86 87];
Fj = [2282, 3788];
Dk = [24 82 61];

Cjk = [[42 35 88]
 [44 43 67]];
Fjk = [[734 415 526]
 [300 361 433]];
